# 3d Lennard-Jones gas
units lj
dimension 3
boundary p p p
atom_style atomic

lattice fcc 0.01
region simbox block 0 15 0 15 0 15
create_box 1 simbox
create_atoms 1 box
change_box all x final 0 20 y final 0 20 z final 0 20

mass 1 1.0
velocity all create 2.5 87287 dist uniform

pair_style lj/cut 3.0
pair_coeff 1 1 1.0 1.0 3.0

fix 1 all nve

dump 1 all custom 10 pressure.lammpstrj id type x y z vx vy vz
log ${filename}
thermo 10
run 5000