
# 3d Lennard-Jones gas
units lj
dimension 3
timestep 0.005
# Periodic boundiaries
boundary p p p
atom_style atomic

lattice fcc 0.01
region simbox block 0 10 0 10 0 10
create_box 1 simbox
create_atoms 1 box

mass 1 1.0
velocity all create ${T} 87287

pair_style lj/cut 3.0
pair_coeff 1 1 1.0 1.0 3.0

#fix 1 all nvt temp ${T} ${T} 3.0
fix 1 all nve

thermo 10
run 5000


reset_timestep 0
variable mytime equal dt*step
compute msd all msd
thermo_style custom step temp time v_mytime press ke pe etotal c_msd[4]

log dat/diffusion_${T}.log

run 25000
