
# 3d Lennard-Jones gas
units lj
dimension 3
# Periodic boundiaries
boundary p p p
atom_style atomic

lattice fcc 0.01
region simbox block 0 20 0 20 0 20
create_box 1 simbox
create_atoms 1 box

mass 1 1.0
velocity all create ${T} 87287 dist uniform

variable cut equal 3.0
pair_style lj/cut ${cut}
pair_coeff 1 1 1.0 1.0


fix 1 all nvt temp ${T} ${T_bath} 1.0
#fix 1 all nve
#fix 2 all temp/berendsen ${T} ${T_bath} 1.0

dump 1 all custom 10 dat/nosehoover_${feature}.lammpstrj id type x y z vx vy vz
log dat/nosehoover_${feature}.log
thermo 100
run 15000
