
# 3d Lennard-Jones gas
units lj
dimension 3
boundary p p p
atom_style atomic

lattice fcc 0.01
region simbox block 0 10 0 10 0 10
create_box 1 simbox
create_atoms 1 box
change_box all x final 0 ${L} y final 0 ${L} z final 0 ${L}

mass 1 1.0
velocity all create ${temperature} 87287 dist uniform

pair_style lj/cut 3.0
pair_coeff 1 1 1.0 1.0 3.0

fix 1 all nve

dump 1 all custom 10 ${filename}.lammpstrj id type x y z vx vy vz
log ${filename}.log
thermo 10
run 50000
