# 3d Lennard-Jones gas
units lj
dimension 3
timestep 0.01
# Periodic boundiaries
boundary p p p
atom_style atomic

lattice fcc 0.01
region simbox block 0 ${simbox} 0 ${simbox} 0 ${simbox}
create_box 1 simbox
create_atoms 1 box

mass 1 1.0
velocity all create 2.5 87287

pair_style lj/cut 3.0
pair_coeff 1 1 1.0 1.0 3.0

fix 1 all nve

log ${filename}
thermo 10
run 5000